
Gurobi 13.0.0 (mac64[arm]) logging started Sun Dec  7 08:30:15 2025

Set parameter LogFile to value "/Users/jjung404/PyProjects/qiga/data/steiner-opt/ES10FST/es10fst13_log.txt"
Set parameter OutputFlag to value 1
Gurobi Optimizer version 13.0.0 build v13.0.0rc1 (mac64[arm] - Darwin 24.6.0 24G325)

CPU model: Apple M3
Thread count: 8 physical cores, 8 logical processors, using up to 8 threads

Optimize a model with 70 rows, 63 columns and 185 nonzeros (Min)
Model fingerprint: 0xcf1c20fa
Model has 21 linear objective coefficients
Variable types: 42 continuous, 21 integer (21 binary)
Coefficient statistics:
  Matrix range     [1e+00, 9e+00]
  Objective range  [3e+04, 4e+06]
  Bounds range     [1e+00, 1e+00]
  RHS range        [1e+00, 9e+00]
Found heuristic solution: objective 2.613330e+07
Presolve removed 31 rows and 24 columns
Presolve time: 0.00s
Presolved: 39 rows, 39 columns, 120 nonzeros
Variable types: 26 continuous, 13 integer (13 binary)

Root relaxation: objective 1.297457e+07, 24 iterations, 0.00 seconds (0.00 work units)

    Nodes    |    Current Node    |     Objective Bounds      |     Work
 Expl Unexpl |  Obj  Depth IntInf | Incumbent    BestBd   Gap | It/Node Time

     0     0 1.2975e+07    0    6 2.6133e+07 1.2975e+07  50.4%     -    0s
H    0     0                    1.948391e+07 1.2975e+07  33.4%     -    0s
     0     0 1.5522e+07    0    9 1.9484e+07 1.5522e+07  20.3%     -    0s
     0     0 1.6158e+07    0    9 1.9484e+07 1.6158e+07  17.1%     -    0s
     0     0 1.8653e+07    0    8 1.9484e+07 1.8653e+07  4.26%     -    0s
     0     0 1.8857e+07    0   10 1.9484e+07 1.8857e+07  3.22%     -    0s
     0     0 1.9308e+07    0   10 1.9484e+07 1.9308e+07  0.91%     -    0s

Cutting planes:
  Gomory: 1
  Cover: 4
  Implied bound: 1
  MIR: 8
  Flow cover: 9
  Flow path: 4
  Network: 4
  RLT: 2
  Relax-and-lift: 4

Explored 1 nodes (94 simplex iterations) in 0.01 seconds (0.00 work units)
Thread count was 8 (of 8 available processors)

Solution count 2: 1.94839e+07 2.61333e+07 

Optimal solution found (tolerance 1.00e-04)
Best objective 1.948391400000e+07, best bound 1.948391400000e+07, gap 0.0000%
